analyze/results_flowersnark/final_miplib_symretope_if_extended_generating_set_cpx_v802__settings_final_nosym_norestarts__1__square37.mps.gz.sol
solution status: optimal solution found
objective value:                                   15
x_1_1_16                                            1 	(obj:1)
x_1_17_10                                           1 	(obj:1)
x_1_27_11                                           1 	(obj:1)
x_11_17_6                                           1 	(obj:1)
x_11_23_2                                           1 	(obj:1)
x_11_25_2                                           1 	(obj:1)
x_12_27_1                                           1 	(obj:1)
x_12_28_10                                          1 	(obj:1)
x_13_23_5                                           1 	(obj:1)
x_17_1_21                                           1 	(obj:1)
x_17_22_1                                           1 	(obj:1)
x_18_22_4                                           1 	(obj:1)
x_18_26_2                                           1 	(obj:1)
x_20_26_2                                           1 	(obj:1)
x_22_22_16                                          1 	(obj:1)
y_21                                                1 	(obj:0)
y_16                                                2 	(obj:0)
y_11                                                1 	(obj:0)
y_10                                                2 	(obj:0)
y_6                                                 1 	(obj:0)
y_5                                                 1 	(obj:0)
y_4                                                 1 	(obj:0)
y_2                                                 4 	(obj:0)
y_1                                                 2 	(obj:0)
