analyze/results_flowersnark/final_miplib_symretope_if_extended_generating_set_cpx_v802__settings_final_nosym_norestarts__1__square37.mps.gz.out
FILENAME:   /home/mcs001/s132664/testsets/IP/miplib2017/square37.mps.gz
SETTINGS:   settings_final_nosym_norestarts
TIMELIMIT:  7200
OUTPUTNAME: final_miplib_symretope_if_extended_generating_set_cpx_v802__settings_final_nosym_norestarts__1__
BINNAME:    bin/sbcs.linux.x86_64.gnu.opt.cpx
BASENAME:   square37.mps.gz
SEED:       1
@01 /home/mcs001/s132664/testsets/IP/miplib2017/square37.mps.gz ===========
@02 square37.mps.gz
@03 1686651494
SCIP version 8.0.2 [precision: 8 byte] [memory: block] [mode: optimized] [LP solver: CPLEX 20.1.0.0] [GitHash: 5f0473c]
Copyright (C) 2002-2022 Konrad-Zuse-Zentrum fuer Informationstechnik Berlin (ZIB)

Symretope propagation methods - (c) Jasper van Doornmalen, Christopher Hojny.
[GitHash: 2fd0484]

reading parameter file <../settings/settings_final_nosym_norestarts.set> ...

Changed settings:
limits/time = 7200
limits/restarts = 0
misc/usesymmetry = 0
randomization/randomseedshift = 1
constraints/orbisack/sepafreq = -1
constraints/symresack/sepafreq = -1
propagating/symmetry/detectsubgroups = FALSE
propagating/symmetry/usesymretopes = FALSE
propagating/symmetry/relabelsymretopes = 0
propagating/symmetry/ofsymcomptiming = 0
constraints/symretope/sepafreq = -1
constraints/symretope/peek = FALSE


solving problem ...

original problem has 49320 variables (49284 bin, 36 int, 0 impl, 0 cont) and 33150 constraints
presolving:
(round 1, fast)       31710 del vars, 31710 del conss, 0 add conss, 31746 chg bounds, 0 chg sides, 0 chg coeffs, 0 upgd conss, 0 impls, 1369 clqs
(round 2, exhaustive) 31710 del vars, 31710 del conss, 0 add conss, 31746 chg bounds, 0 chg sides, 0 chg coeffs, 1369 upgd conss, 0 impls, 1369 clqs
(round 3, exhaustive) 31710 del vars, 31734 del conss, 0 add conss, 31746 chg bounds, 24 chg sides, 0 chg coeffs, 1369 upgd conss, 0 impls, 1369 clqs
   (40.8s) probing: 1000/17574 (5.7%) - 0 fixings, 0 aggregations, 26381 implications, 0 bound changes
   (40.8s) probing: 1001/17574 (5.7%) - 0 fixings, 0 aggregations, 26394 implications, 0 bound changes
   (40.8s) probing aborted: 1000/1000 successive useless probings
presolving (4 rounds: 4 fast, 3 medium, 3 exhaustive):
 31710 deleted vars, 31734 deleted constraints, 0 added constraints, 31746 tightened bounds, 0 added holes, 24 changed sides, 0 changed coefficients
 26282 implications, 1481 cliques
presolved problem has 17610 variables (17574 bin, 36 int, 0 impl, 0 cont) and 1416 constraints
   1369 constraints of type <setppc>
     47 constraints of type <linear>
transformed objective value is always integral (scale: 1)
Presolving Time: 40.25

 time | node  | left  |LP iter|LP it/n|mem/heur|mdpt |vars |cons |rows |cuts |sepa|confs|strbr|  dualbound   | primalbound  |  gap   | compl. 
p44.6s|     1 |     0 |     0 |     - |  clique|   0 |  17k|1416 |1416 |   0 |  0 |   0 |   0 | 4.000000e+00 | 4.000000e+01 | 900.00%| unknown
 97.8s|     1 |     0 |  1934 |     - |  3190M |   0 |  17k|1430 |1416 |   0 |  0 |  28 |   0 | 8.666667e+00 | 4.000000e+01 | 361.54%| unknown
  379s|     1 |     2 | 21261 |     - |  3195M |   0 |  17k|1428 |1416 |   0 |  2 |  28 |  23 | 8.806850e+00 | 4.000000e+01 | 354.19%| unknown
* 675s|     6 |     5 | 32305 |6075.8 |    LP  |   5 |  17k|1416 |1416 |   0 |  1 |  28 | 121 | 8.901460e+00 | 1.500000e+01 |  68.51%| unknown
 1246s|   100 |    51 |334437 |3358.7 |  3250M |  23 |  17k|1578 |1416 |   0 |  0 | 256 | 280 | 1.001522e+01 | 1.500000e+01 |  49.77%|  30.96%
 1540s|   200 |    71 |488135 |2443.3 |  3271M |  52 |  17k|1488 |1416 |   0 |  2 | 286 | 370 | 1.073373e+01 | 1.500000e+01 |  39.75%|  33.47%
 1705s|   300 |    73 |607545 |2025.5 |  3280M |  71 |  17k|1501 |1416 |   0 |  0 | 307 | 439 | 1.098904e+01 | 1.500000e+01 |  36.50%|  37.79%
 1866s|   400 |    77 |734408 |1835.8 |  3293M |  84 |  17k|1513 |1416 |   0 |  1 | 370 | 528 | 1.130176e+01 | 1.500000e+01 |  32.72%|  43.82%
 2011s|   500 |    81 |868939 |1737.5 |  3301M |  94 |  17k|1503 |1416 |   0 |  2 | 403 | 608 | 1.146112e+01 | 1.500000e+01 |  30.88%|  45.35%
 2111s|   600 |    85 |958881 |1597.6 |  3305M | 120 |  17k|1493 |1416 |   0 |  2 | 410 | 656 | 1.149870e+01 | 1.500000e+01 |  30.45%|  50.17%
 2222s|   700 |    83 |  1062k|1516.9 |  3312M | 123 |  17k|1524 |1416 |   0 |  2 | 507 | 720 | 1.178693e+01 | 1.500000e+01 |  27.26%|  58.64%
 2329s|   800 |    79 |  1166k|1457.9 |  3334M | 123 |  17k|1539 |1416 |   0 |  0 | 591 | 817 | 1.180112e+01 | 1.500000e+01 |  27.11%|  60.81%
 2435s|   900 |    77 |  1258k|1397.3 |  3336M | 136 |  17k|1567 |1416 |   0 |  0 | 644 | 885 | 1.180112e+01 | 1.500000e+01 |  27.11%|  64.01%
 2536s|  1000 |    73 |  1360k|1360.0 |  3340M | 136 |  17k|1573 |1416 |   0 |  2 | 679 | 949 | 1.222005e+01 | 1.500000e+01 |  22.75%|  67.54%
 2601s|  1100 |    67 |  1423k|1293.4 |  3347M | 151 |  17k|1614 |1416 |   0 |  0 | 734 |1003 | 1.222005e+01 | 1.500000e+01 |  22.75%|  69.76%
 time | node  | left  |LP iter|LP it/n|mem/heur|mdpt |vars |cons |rows |cuts |sepa|confs|strbr|  dualbound   | primalbound  |  gap   | compl. 
 2685s|  1200 |    57 |  1495k|1245.3 |  3363M | 162 |  17k|1719 |1416 |   0 |  0 | 895 |1092 | 1.222005e+01 | 1.500000e+01 |  22.75%|  70.47%
 2771s|  1300 |    39 |  1569k|1207.0 |  3376M | 167 |  17k|1825 |1416 |   0 |  2 |1069 |1193 | 1.265241e+01 | 1.500000e+01 |  18.55%|  79.83%

SCIP Status        : problem is solved [optimal solution found]
Solving Time (sec) : 2837.35
Solving Nodes      : 1347
Primal Bound       : +1.50000000000000e+01 (3 solutions)
Dual Bound         : +1.50000000000000e+01
Gap                : 0.00 %
SCIP Status        : problem is solved [optimal solution found]
Total Time         :    2842.90
  solving          :    2837.35
  presolving       :      40.25 (included in solving)
  reading          :       5.55
  copying          :       3.03 (13 #copies) (minimal 0.22, maximal 0.25, average 0.23)
Original Problem   :
  Problem name     : square37
  Variables        : 49320 (49284 binary, 36 integer, 0 implicit integer, 0 continuous)
  Constraints      : 33150 initial, 33150 maximal
  Objective        : minimize, 49284 non-zeros (abs.min = 1, abs.max = 1)
Presolved Problem  :
  Problem name     : t_square37
  Variables        : 17610 (17574 binary, 36 integer, 0 implicit integer, 0 continuous)
  Constraints      : 1416 initial, 1951 maximal
  Objective        : minimize, 17430 non-zeros (abs.min = 1, abs.max = 1)
  Nonzeros         : 2657755 constraint, 2093032 clique table
Presolvers         :   ExecTime  SetupTime  Calls  FixedVars   AggrVars   ChgTypes  ChgBounds   AddHoles    DelCons    AddCons   ChgSides   ChgCoefs
  boundshift       :       0.00       0.00      0          0          0          0          0          0          0          0          0          0
  convertinttobin  :       0.00       0.00      0          0          0          0          0          0          0          0          0          0
  domcol           :       0.47       0.00      1          0          0          0          0          0          0          0          0          0
  dualagg          :       0.00       0.00      0          0          0          0          0          0          0          0          0          0
  dualcomp         :       0.00       0.00      0          0          0          0          0          0          0          0          0          0
  dualinfer        :       0.00       0.00      0          0          0          0          0          0          0          0          0          0
  dualsparsify     :       2.27       0.00      1          0          0          0          0          0          0          0          0          0
  gateextraction   :       0.00       0.00      0          0          0          0          0          0          0          0          0          0
  implics          :       0.00       0.00      3          0          0          0          0          0          0          0          0          0
  inttobinary      :       0.00       0.00      4          0          0          0          0          0          0          0          0          0
  qpkktref         :       0.00       0.00      0          0          0          0          0          0          0          0          0          0
  redvub           :       0.00       0.00      0          0          0          0          0          0          0          0          0          0
  sparsify         :       1.26       0.00      1          0          0          0          0          0          0          0          0          0
  stuffing         :       0.00       0.00      0          0          0          0          0          0          0          0          0          0
  trivial          :       0.01       0.00      4          0          0          0          0          0          0          0          0          0
  tworowbnd        :       0.00       0.00      0          0          0          0          0          0          0          0          0          0
  dualfix          :       0.00       0.00      4          0          0          0          0          0          0          0          0          0
  genvbounds       :       0.00       0.00      0          0          0          0          0          0          0          0          0          0
  probing          :      22.09       0.00      1          0          0          0          0          0          0          0          0          0
  pseudoobj        :       0.00       0.00      0          0          0          0          0          0          0          0          0          0
  symmetry         :       0.00       0.00      0          0          0          0          0          0          0          0          0          0
  vbounds          :       0.05       0.00      1          0          0          0          0          0          0          0          0          0
  knapsack         :       0.00       0.00      0          0          0          0          0          0          0          0          0          0
  setppc           :       0.77       0.02      6          0          0          0          0          0          0          0          0          0
  linear           :      12.10       2.34      7      31710          0          0      31746          0      31734          0         24          0
  logicor          :       0.00       0.00      0          0          0          0          0          0          0          0          0          0
  bounddisjunction :       0.00       0.00      0          0          0          0          0          0          0          0          0          0
  benders          :       0.00       0.00      0          0          0          0          0          0          0          0          0          0
  components       :       0.45       0.00      1          0          0          0          0          0          0          0          0          0
  root node        :          -          -      -       1212          -          -       1283          -          -          -          -          -
Constraints        :     Number  MaxNumber  #Separate #Propagate    #EnfoLP    #EnfoRelax  #EnfoPS    #Check   #ResProp    Cutoffs    DomReds       Cuts    Applied      Conss   Children
  benderslp        :          0          0          0          0        806          0          0         51          0          0          0          0          0          0          0
  integral         :          0          0          0          0        806          0          0         51          0          0        511          0          0        842       1346
  knapsack         :          0+         5          0       2820          0          0          0          0          2          0         14          0          0          0          0
  setppc           :       1369+      1389          1      17103          1          0          0         45     510917         87     756969          0          0          0          0
  linear           :         47         47          1      17016          1          0          0          5      44195         34      27541          0          0          0          0
  logicor          :          0+        27          1        674          0          0          0          0          6          0          1          0          0          0          0
  bounddisjunction :          0+       510          0       2341          0          0          0          0        212          6          8          0          0          0          0
  benders          :          0          0          0          0          1          0          0          6          0          0          0          0          0          0          0
  countsols        :          0          0          0          0          1          0          0          6          0          0          0          0          0          0          0
  components       :          0          0          0          0          0          0          0          0          0          0          0          0          0          0          0
Constraint Timings :  TotalTime  SetupTime   Separate  Propagate     EnfoLP     EnfoPS     EnfoRelax   Check    ResProp    SB-Prop
  benderslp        :       0.00       0.00       0.00       0.00       0.00       0.00       0.00       0.00       0.00       0.00
  integral         :    1091.15       0.00       0.00       0.00    1091.13       0.00       0.00       0.02       0.00       0.00
  knapsack         :       0.01       0.00       0.00       0.00       0.00       0.00       0.00       0.00       0.00       0.00
  setppc           :      15.01       0.02       0.21       4.91       0.00       0.00       0.00       0.15       1.70       8.01
  linear           :       6.89       2.34       0.00       3.55       0.00       0.00       0.00       0.01       0.29       0.69
  logicor          :       0.01       0.00       0.00       0.00       0.00       0.00       0.00       0.00       0.00       0.00
  bounddisjunction :       0.22       0.00       0.00       0.08       0.00       0.00       0.00       0.00       0.07       0.07
  benders          :       0.00       0.00       0.00       0.00       0.00       0.00       0.00       0.00       0.00       0.00
  countsols        :       0.00       0.00       0.00       0.00       0.00       0.00       0.00       0.00       0.00       0.00
  components       :       0.00       0.00       0.00       0.00       0.00       0.00       0.00       0.00       0.00       0.00
Propagators        : #Propagate   #ResProp    Cutoffs    DomReds
  dualfix          :          3          0          0          0
  genvbounds       :          0          0          0          0
  nlobbt           :          0          0          0          0
  obbt             :          0          0          0          0
  probing          :          0          0          0          0
  pseudoobj        :       4993          0          0          0
  redcost          :       3121          0          0     777140
  rootredcost      :          2          0          0        891
  symmetry         :          0          0          0          0
  vbounds          :       6543          0          0          0
Propagator Timings :  TotalTime  SetupTime   Presolve  Propagate    ResProp    SB-Prop
  dualfix          :       0.01       0.00       0.00       0.00       0.00       0.00
  genvbounds       :       0.01       0.00       0.00       0.01       0.00       0.00
  nlobbt           :       0.00       0.00       0.00       0.00       0.00       0.00
  obbt             :       0.00       0.00       0.00       0.00       0.00       0.00
  probing          :      22.09       0.00      22.09       0.00       0.00       0.00
  pseudoobj        :       0.11       0.00       0.00       0.11       0.00       0.00
  redcost          :       4.38       0.00       0.00       4.38       0.00       0.00
  rootredcost      :       0.14       0.00       0.00       0.14       0.00       0.00
  symmetry         :       0.00       0.00       0.00       0.00       0.00       0.00
  vbounds          :       0.09       0.00       0.05       0.04       0.00       0.01
Conflict Analysis  :       Time      Calls    Success    DomReds  Conflicts   Literals    Reconvs ReconvLits   Dualrays   Nonzeros   LP Iters   (pool size: [10000,10000])
  propagation      :       0.92         93         87          -        540     2399.7          1     1923.0          -          -          -
  infeasible LP    :       5.06         82          6          -         31      825.5          0        0.0          5      506.2          0
  bound exceed. LP :     129.21        441        466          -       2082     1717.1         34      270.6         70        1.0       6880
  strong branching :       0.00          0          0          -          0        0.0          0        0.0          -          -          0
  pseudo solution  :       0.00          0          0          -          0        0.0          0        0.0          -          -          -
  applied globally :      61.73          -          -         70       1129     1082.5          -          -         75          -          -
  applied locally  :          -          -          -          0         86     3941.9          -          -          0          -          -
Separators         :   ExecTime  SetupTime      Calls  RootCalls    Cutoffs    DomReds  FoundCuts ViaPoolAdd  DirectAdd    Applied ViaPoolApp  DirectApp      Conss
  cut pool         :       0.00          -          0          0          -          -          0          0          -          -          -          -          -    (maximal pool size:          0)
  aggregation      :       1.43       0.00         56          1          0          0          0          0          0          0          0          0          0
  > cmir           :          -          -          -          -          -          -          -          0          0          0          0          0          -
  > flowcover      :          -          -          -          -          -          -          -          0          0          0          0          0          -
  > knapsackcover  :          -          -          -          -          -          -          -          0          0          0          0          0          -
  cgmip            :       0.00       0.00          0          0          0          0          0          0          0          0          0          0          0
  clique           :      21.64       0.00          1          1          0          0          0          0          0          0          0          0          0
  closecuts        :       0.00       0.00          0          0          0          0          0          0          0          0          0          0          0
  convexproj       :       0.00       0.00          0          0          0          0          0          0          0          0          0          0          0
  disjunctive      :       0.00       0.00          0          0          0          0          0          0          0          0          0          0          0
  eccuts           :       0.00       0.00          0          0          0          0          0          0          0          0          0          0          0
  gauge            :       0.00       0.00          0          0          0          0          0          0          0          0          0          0          0
  gomory           :       3.78       0.00         56          1          0          0          0          0          0          0          0          0          0
  > gomorymi       :          -          -          -          -          -          -          -          0          0          0          0          0          -
  > strongcg       :          -          -          -          -          -          -          -          0          0          0          0          0          -
  impliedbounds    :       0.09       0.00         56          1          0          0          0          0          0          0          0          0          0
  interminor       :       0.00       0.00          0          0          0          0          0          0          0          0          0          0          0
  intobj           :       0.00       0.00          0          0          0          0          0          0          0          0          0          0          0
  mcf              :       0.02       0.00          1          1          0          0          0          0          0          0          0          0          0
  minor            :       0.00       0.00          0          0          0          0          0          0          0          0          0          0          0
  mixing           :       0.00       0.00         56          1          0          0          0          0          0          0          0          0          0
  oddcycle         :       0.00       0.00          0          0          0          0          0          0          0          0          0          0          0
  rapidlearning    :       0.01       0.00          0          0          0          0          0          0          0          0          0          0          0
  rlt              :       0.00       0.00          1          1          0          0          0          0          0          0          0          0          0
  zerohalf         :       0.49       0.00         56          1          0          0          0          0          0          0          0          0          0
Cutselectors       :   ExecTime  SetupTime      Calls  RootCalls   Selected     Forced   Filtered  RootSelec   RootForc   RootFilt 
  hybrid           :       0.00       0.00          0          0          0          0          0          0          0          0
Pricers            :   ExecTime  SetupTime      Calls       Vars
  problem variables:       0.00          -          0          0
Branching Rules    :   ExecTime  SetupTime   BranchLP  BranchExt   BranchPS    Cutoffs    DomReds       Cuts      Conss   Children
  allfullstrong    :       0.00       0.00          0          0          0          0          0          0          0          0
  cloud            :       0.00       0.00          0          0          0          0          0          0          0          0
  distribution     :       0.00       0.00          0          0          0          0          0          0          0          0
  fullstrong       :       0.00       0.00          0          0          0          0          0          0          0          0
  inference        :       0.00       0.00          0          0          0          0          0          0          0          0
  leastinf         :       0.00       0.00          0          0          0          0          0          0          0          0
  lookahead        :       0.00       0.00          0          0          0          0          0          0          0          0
  mostinf          :       0.00       0.00          0          0          0          0          0          0          0          0
  multaggr         :       0.00       0.00          0          0          0          0          0          0          0          0
  nodereopt        :       0.00       0.00          0          0          0          0          0          0          0          0
  pscost           :       0.00       0.00          0          0          0          0          0          0          0          0
  random           :       0.00       0.00          0          0          0          0          0          0          0          0
  relpscost        :    1091.13       0.00        805          0          0          0        511          0        920       1346
  vanillafullstrong:       0.00       0.00          0          0          0          0          0          0          0          0
Primal Heuristics  :   ExecTime  SetupTime      Calls      Found       Best
  LP solutions     :       0.00          -          -          1          1
  relax solutions  :       0.00          -          -          0          0
  pseudo solutions :       0.00          -          -          0          0
  strong branching :       0.01          -          -          0          0
  actconsdiving    :       0.00       0.00          0          0          0
  adaptivediving   :       0.57       0.00          2          0          0
  alns             :       4.70       0.00          5          0          0
  bound            :       0.00       0.00          0          0          0
  clique           :       0.98       0.00          1          1          1
  coefdiving       :       0.00       0.00          0          0          0
  completesol      :       0.00       0.00          0          0          0
  conflictdiving   :      51.54       0.00          2          0          0
  crossover        :       0.34       0.00          1          0          0
  dins             :       0.00       0.00          0          0          0
  distributiondivin:       2.26       0.00          2          0          0
  dps              :       0.00       0.00          0          0          0
  dualval          :       0.00       0.00          0          0          0
  farkasdiving     :       0.00       0.00          0          0          0
  feaspump         :     121.92       0.00          1          0          0
  fixandinfer      :       0.00       0.00          0          0          0
  fracdiving       :       1.00       0.00          2          0          0
  gins             :       0.53       0.00          0          0          0
  guideddiving     :       0.47       0.00          1          0          0
  indicator        :       0.00       0.00          0          0          0
  intdiving        :       0.00       0.00          0          0          0
  intshifting      :       0.00       0.00          0          0          0
  linesearchdiving :       4.27       0.00          1          0          0
  localbranching   :       0.00       0.00          0          0          0
  locks            :       0.36       0.00          1          0          0
  lpface           :       0.00       0.00          0          0          0
  mpec             :       0.00       0.00          0          0          0
  multistart       :       0.00       0.00          0          0          0
  mutation         :       0.00       0.00          0          0          0
  nlpdiving        :       0.00       0.00          0          0          0
  objpscostdiving  :      27.34       0.00          1          0          0
  octane           :       0.00       0.00          0          0          0
  ofins            :       0.00       0.00          0          0          0
  oneopt           :       0.12       0.00          2          0          0
  padm             :       0.00       0.00          0          0          0
  proximity        :       0.00       0.00          0          0          0
  pscostdiving     :      25.71       0.00          2          0          0
  randrounding     :       0.23       0.00         37          0          0
  rens             :       0.32       0.00          1          0          0
  reoptsols        :       0.00       0.00          0          0          0
  repair           :       0.00       0.00          0          0          0
  rins             :       2.60       0.00          6          0          0
  rootsoldiving    :       3.74       0.00          1          1          0
  rounding         :       2.85       0.00        365          0          0
  shiftandpropagate:       0.00       0.00          0          0          0
  shifting         :       4.63       0.00         86          0          0
  simplerounding   :       0.00       0.00          0          0          0
  subnlp           :       0.00       0.00          0          0          0
  trivial          :       0.10       0.00          2          0          0
  trivialnegation  :       0.00       0.00          0          0          0
  trustregion      :       0.00       0.00          0          0          0
  trysol           :       0.00       0.00          0          0          0
  twoopt           :       0.00       0.00          0          0          0
  undercover       :       0.00       0.00          0          0          0
  vbounds          :      46.94       0.00          1          0          0
  veclendiving     :       0.30       0.00          1          0          0
  zeroobj          :       0.00       0.00          0          0          0
  zirounding       :       0.15       0.00        673          0          0
  other solutions  :          -          -          -          0          -
LP                 :       Time      Calls Iterations  Iter/call   Iter/sec  Time-0-It Calls-0-It    ItLimit
  primal LP        :       0.00          0          0       0.00          -       0.00          0
  dual LP          :    1323.46       2982    1501949    1035.83    1134.86      14.13       1532
  lex dual LP      :       0.00          0          0       0.00          -
  barrier LP       :       0.00          0          0       0.00          -       0.00          0
  resolve instable :       0.00          0          0       0.00          -
  diving/probing LP:     232.70         49     111794    2281.51     480.41
  strong branching :     955.22       1320     866917     656.76     907.55          -          -       1463
    (at root node) :          -         23      18520     805.22          -
  conflict analysis:      47.86        688       6880      10.00     143.76
B&B Tree           :
  number of runs   :          1
  nodes            :       1347 (673 internal, 674 leaves)
  feasible leaves  :          1
  infeas. leaves   :         43
  objective leaves :        630
  nodes (total)    :       1347 (673 internal, 674 leaves)
  nodes left       :          0
  max depth        :        168
  max depth (total):        168
  backtracks       :        201 (14.9%)
  early backtracks :          0 (0.0%)
  nodes exc. ref.  :          0 (0.0%)
  delayed cutoffs  :          0
  repropagations   :         36 (9 domain reductions, 0 cutoffs)
  avg switch length:       7.93
  switching time   :       5.95
Root Node          :
  First LP value   : +8.66666666666666e+00
  First LP Iters   :       1926 (330.46 Iter/sec)
  First LP Time    :       5.83
  Final Dual Bound : +8.80684983337559e+00
  Final Root Iters :       1926
  Root LP Estimate : +1.10651974612364e+01
Solution           :
  Solutions found  :          3 (2 improvements)
  First Solution   : +4.00000000000000e+01   (in run 1, after 1 nodes, 44.57 seconds, depth 6, found by <clique>)
  Gap First Sol.   :     900.00 %
  Gap Last Sol.    :      68.51 %
  Primal Bound     : +1.50000000000000e+01   (in run 1, after 6 nodes, 674.96 seconds, depth 5, found by <relaxation>)
  Dual Bound       : +1.50000000000000e+01
  Gap              :       0.00 %
Integrals          :      Total       Avg%
  primal-dual      :  114657.82      40.41
  primal-ref       :          -          - (not evaluated)
  dual-ref         :          -          - (not evaluated)
written solution information to file <results/final_miplib_symretope_if_extended_generating_set_cpx_v802__settings_final_nosym_norestarts__1__square37.mps.gz.sol>
@04 1686654340
